projected/problems_b25_r0_d7_m100_s666/_DIMACS/b25_d7_r0_s666_100.cnf
p cnf 210 315 24
c p show 1 2 3 4 5 6 7 8 9 10 11 12 13 14 15 16 17 18 19 20 21 22 23 24
-37 -17 11 0
-38 -20 -6 0
-39 38 0
-39 37 0
-40 5 -5 0
-41 3 0
-41 -11 0
-42 41 40 0
-43 42 0
-43 39 0
-44 -19 -11 0
-45 14 6 0
-46 45 44 0
-47 -14 0
-47 -6 0
-48 19 0
-48 11 0
-49 48 47 0
-50 49 0
-50 46 0
-51 -2 0
-51 -17 0
-52 -10 0
-52 -12 0
-53 52 51 0
-54 53 0
-54 50 0
-55 54 0
-55 43 0
-56 1 -16 0
-57 16 -1 0
-58 57 0
-58 56 0
-59 -11 0
-59 16 0
-60 59 0
-60 58 0
-61 4 13 0
-62 -10 0
-62 -13 0
-63 13 0
-63 10 0
-64 63 62 0
-65 64 61 0
-66 65 0
-66 60 0
-67 1 0
-67 -16 0
-68 8 0
-68 -2 0
-69 68 67 0
-70 -20 0
-71 23 0
-71 14 0
-72 71 0
-72 70 0
-73 72 0
-73 69 0
-74 73 66 0
-75 74 55 0
-76 19 0
-76 -8 0
-77 -14 -7 0
-78 77 0
-78 76 0
-79 -22 1 0
-80 3 0
-80 -3 0
-81 80 79 0
-82 81 78 0
-83 4 -12 0
-84 -9 0
-84 16 0
-85 84 0
-85 83 0
-86 1 -6 0
-87 -6 -8 0
-88 87 86 0
-89 88 0
-89 85 0
-90 89 82 0
-91 12 0
-91 -19 0
-92 -15 -11 0
-93 92 0
-93 91 0
-94 18 0
-94 4 0
-95 1 0
-95 16 0
-96 95 0
-96 94 0
-97 96 93 0
-98 -24 5 0
-99 19 -3 0
-100 99 98 0
-101 18 -1 0
-102 -14 0
-102 20 0
-103 102 0
-103 101 0
-104 103 0
-104 100 0
-105 104 0
-105 97 0
-106 105 0
-106 90 0
-107 106 75 0
-108 23 21 0
-109 24 8 0
-110 109 108 0
-111 -13 0
-111 19 0
-112 24 -13 0
-113 112 111 0
-114 113 110 0
-115 7 10 0
-116 -10 -7 0
-117 116 0
-117 115 0
-118 13 6 0
-119 118 117 0
-120 -13 0
-120 -6 0
-121 -7 0
-121 -10 0
-122 10 0
-122 7 0
-123 122 121 0
-124 123 120 0
-125 124 0
-125 119 0
-126 -8 0
-126 10 0
-127 18 0
-127 -7 0
-128 127 0
-128 126 0
-129 128 0
-129 125 0
-130 8 -10 0
-131 -18 7 0
-132 131 130 0
-133 120 0
-133 123 0
-134 117 0
-134 118 0
-135 134 133 0
-136 135 0
-136 132 0
-137 136 129 0
-138 137 114 0
-139 -8 0
-139 20 0
-140 17 0
-140 19 0
-141 140 139 0
-142 -17 -19 0
-143 8 -20 0
-144 143 142 0
-145 144 0
-145 141 0
-146 -21 0
-147 10 0
-147 -2 0
-148 147 146 0
-149 148 145 0
-150 24 0
-150 4 0
-151 -21 -12 0
-152 151 0
-152 150 0
-153 21 0
-153 12 0
-154 -24 -4 0
-155 154 0
-155 153 0
-156 155 152 0
-157 18 -9 0
-158 -13 5 0
-159 158 157 0
-160 159 156 0
-161 160 0
-161 149 0
-162 161 0
-162 138 0
-163 -13 23 0
-164 9 0
-164 -11 0
-165 164 163 0
-166 18 0
-166 20 0
-167 -2 0
-167 2 0
-168 167 0
-168 166 0
-169 168 165 0
-170 -18 -20 0
-171 2 -2 0
-172 171 170 0
-173 13 0
-173 -23 0
-174 -9 11 0
-175 174 0
-175 173 0
-176 175 172 0
-177 176 0
-177 169 0
-178 20 0
-178 17 0
-179 -17 0
-179 -20 0
-180 179 178 0
-181 17 -6 0
-182 181 0
-182 180 0
-183 14 0
-184 1 6 0
-185 184 183 0
-186 185 0
-186 182 0
-187 186 0
-187 177 0
-188 -20 -17 0
-189 17 20 0
-190 189 0
-190 188 0
-191 -17 0
-191 6 0
-192 191 190 0
-193 -14 0
-194 -1 0
-194 -6 0
-195 194 0
-195 193 0
-196 195 192 0
-197 172 0
-197 175 0
-198 165 0
-198 168 0
-199 198 197 0
-200 199 0
-200 196 0
-201 200 187 0
-202 15 -1 0
-203 1 -15 0
-204 203 0
-204 202 0
-205 8 -8 0
-206 205 204 0
-207 22 0
-207 -16 0
-208 16 11 0
-209 208 207 0
-210 209 206 0
-25 -11 -13 0
-26 13 11 0
-27 26 0
-27 25 0
-31 5 -23 0
-32 31 0
-32 27 0
-33 -11 21 0
-34 10 0
-34 -6 0
-35 34 0
-35 33 0
-28 35 32 0
-36 28 210 0
-29 36 0
-29 201 0
-30 29 0
-30 162 0
30 107 0
-45 -47 0
-47 -45 0
-44 -48 0
-126 -130 0
-130 -126 0
-131 -127 0
-132 -128 0
-128 -132 0
-120 -118 0
-117 -123 0
-125 -135 0
-135 -125 0
-140 -142 0
-142 -140 0
-143 -139 0
-139 -143 0
-151 -153 0
-154 -150 0
-190 -180 0
-180 -190 0
-181 -191 0
-182 -192 0
-192 -182 0
-193 -183 0
-183 -193 0
-194 -184 0
-184 -194 0
-185 -195 0
-195 -185 0
-196 -186 0
-186 -196 0
-170 -166 0
-171 -167 0
-172 -168 0
-163 -173 0
-173 -163 0
-174 -164 0
-175 -165 0
-165 -175 0
-177 -199 0
-199 -177 0
