projected/problems_b25_r0_d7_m100_s666/b25_d7_r0_s666_100.smt2
(set-logic QF_UF)
(declare-fun A0 () Bool)
(declare-fun A1 () Bool)
(declare-fun A3 () Bool)
(declare-fun A4 () Bool)
(declare-fun A5 () Bool)
(declare-fun A6 () Bool)
(declare-fun A7 () Bool)
(declare-fun A8 () Bool)
(declare-fun A9 () Bool)
(declare-fun A10 () Bool)
(declare-fun A11 () Bool)
(declare-fun A12 () Bool)
(declare-fun A13 () Bool)
(declare-fun A14 () Bool)
(declare-fun A15 () Bool)
(declare-fun A16 () Bool)
(declare-fun A17 () Bool)
(declare-fun A18 () Bool)
(declare-fun A19 () Bool)
(declare-fun A20 () Bool)
(declare-fun A21 () Bool)
(declare-fun A22 () Bool)
(declare-fun A23 () Bool)
(declare-fun A24 () Bool)
(assert (let ((.def_0 (not A17))) (let ((.def_1 (or .def_0 A11))) (let ((.def_2 (not A6))) (let ((.def_3 (not A20))) (let ((.def_4 (or .def_3 .def_2))) (let ((.def_5 (and .def_4 .def_1))) (let ((.def_6 (not .def_5))) (let ((.def_7 (not A5))) (let ((.def_8 (and .def_7 A5))) (let ((.def_9 (not A11))) (let ((.def_10 (and A3 .def_9))) (let ((.def_11 (not .def_10))) (let ((.def_12 (and .def_11 .def_8))) (let ((.def_13 (or .def_12 .def_6))) (let ((.def_14 (or A14 A6))) (let ((.def_15 (not .def_14))) (let ((.def_16 (not A19))) (let ((.def_17 (or .def_16 .def_9))) (let ((.def_18 (= .def_17 .def_15))) (let ((.def_19 (or A1 A17))) (let ((.def_20 (not .def_19))) (let ((.def_21 (or A10 A12))) (let ((.def_22 (not .def_21))) (let ((.def_23 (or .def_22 .def_20))) (let ((.def_24 (and .def_23 .def_18))) (let ((.def_25 (not .def_24))) (let ((.def_26 (or .def_25 .def_13))) (let ((.def_27 (not A0))) (let ((.def_28 (not A16))) (let ((.def_29 (= .def_28 .def_27))) (let ((.def_30 (not .def_29))) (let ((.def_31 (and .def_9 A16))) (let ((.def_32 (not .def_31))) (let ((.def_33 (or .def_32 .def_30))) (let ((.def_34 (not .def_33))) (let ((.def_35 (not A13))) (let ((.def_36 (not A4))) (let ((.def_37 (and .def_36 .def_35))) (let ((.def_38 (not A10))) (let ((.def_39 (= A13 .def_38))) (let ((.def_40 (and .def_39 .def_37))) (let ((.def_41 (not .def_40))) (let ((.def_42 (and .def_41 .def_34))) (let ((.def_43 (or .def_27 A16))) (let ((.def_44 (not .def_43))) (let ((.def_45 (not A1))) (let ((.def_46 (and A8 .def_45))) (let ((.def_47 (or .def_46 .def_44))) (let ((.def_48 (not .def_47))) (let ((.def_49 (or A20 A20))) (let ((.def_50 (not A14))) (let ((.def_51 (not A23))) (let ((.def_52 (or .def_51 .def_50))) (let ((.def_53 (or .def_52 .def_49))) (let ((.def_54 (or .def_53 .def_48))) (let ((.def_55 (not .def_54))) (let ((.def_56 (or .def_55 .def_42))) (let ((.def_57 (not .def_56))) (let ((.def_58 (and .def_57 .def_26))) (let ((.def_59 (not A8))) (let ((.def_60 (and A19 .def_59))) (let ((.def_61 (not .def_60))) (let ((.def_62 (not A7))) (let ((.def_63 (or .def_50 .def_62))) (let ((.def_64 (not .def_63))) (let ((.def_65 (or .def_64 .def_61))) (let ((.def_66 (not .def_65))) (let ((.def_67 (and A22 .def_27))) (let ((.def_68 (not A3))) (let ((.def_69 (and A3 .def_68))) (let ((.def_70 (not .def_69))) (let ((.def_71 (and .def_70 .def_67))) (let ((.def_72 (not .def_71))) (let ((.def_73 (or .def_72 .def_66))) (let ((.def_74 (not .def_73))) (let ((.def_75 (and .def_36 A12))) (let ((.def_76 (not .def_75))) (let ((.def_77 (or A9 .def_28))) (let ((.def_78 (not .def_77))) (let ((.def_79 (and .def_78 .def_76))) (let ((.def_80 (not .def_79))) (let ((.def_81 (or A0 .def_2))) (let ((.def_82 (and A6 A8))) (let ((.def_83 (not .def_82))) (let ((.def_84 (or .def_83 .def_81))) (let ((.def_85 (not .def_84))) (let ((.def_86 (or .def_85 .def_80))) (let ((.def_87 (and .def_86 .def_74))) (let ((.def_88 (and A12 .def_16))) (let ((.def_89 (not A15))) (let ((.def_90 (or .def_89 .def_9))) (let ((.def_91 (and .def_90 .def_88))) (let ((.def_92 (not A18))) (let ((.def_93 (or .def_92 .def_36))) (let ((.def_94 (and A0 A16))) (let ((.def_95 (not .def_94))) (let ((.def_96 (or .def_95 .def_93))) (let ((.def_97 (not .def_96))) (let ((.def_98 (or .def_97 .def_91))) (let ((.def_99 (and A24 .def_7))) (let ((.def_100 (not .def_99))) (let ((.def_101 (or A19 .def_68))) (let ((.def_102 (or .def_101 .def_100))) (let ((.def_103 (not .def_102))) (let ((.def_104 (and .def_92 A0))) (let ((.def_105 (not .def_104))) (let ((.def_106 (or A14 .def_3))) (let ((.def_107 (not .def_106))) (let ((.def_108 (and .def_107 .def_105))) (let ((.def_109 (not .def_108))) (let ((.def_110 (or .def_109 .def_103))) (let ((.def_111 (not .def_110))) (let ((.def_112 (and .def_111 .def_98))) (let ((.def_113 (not .def_112))) (let ((.def_114 (or .def_113 .def_87))) (let ((.def_115 (and .def_114 .def_58))) (let ((.def_116 (not .def_115))) (let ((.def_117 (or A23 A21))) (let ((.def_118 (not .def_117))) (let ((.def_119 (or A24 A8))) (let ((.def_120 (not .def_119))) (let ((.def_121 (and .def_120 .def_118))) (let ((.def_122 (or A13 .def_16))) (let ((.def_123 (or A24 .def_35))) (let ((.def_124 (not .def_123))) (let ((.def_125 (and .def_124 .def_122))) (let ((.def_126 (and .def_125 .def_121))) (let ((.def_127 (and .def_59 A10))) (let ((.def_128 (not .def_127))) (let ((.def_129 (or .def_92 A7))) (let ((.def_130 (or .def_129 .def_128))) (let ((.def_131 (not .def_130))) (let ((.def_132 (and .def_35 .def_2))) (let ((.def_133 (= A10 .def_62))) (let ((.def_134 (= .def_133 .def_132))) (let ((.def_135 (not .def_134))) (let ((.def_136 (= .def_135 .def_131))) (let ((.def_137 (and .def_136 .def_126))) (let ((.def_138 (not .def_137))) (let ((.def_139 (and A17 A19))) (let ((.def_140 (not .def_139))) (let ((.def_141 (or A8 .def_3))) (let ((.def_142 (not .def_141))) (let ((.def_143 (= .def_142 .def_140))) (let ((.def_144 (and A21 A21))) (let ((.def_145 (or .def_38 A1))) (let ((.def_146 (and .def_145 .def_144))) (let ((.def_147 (not .def_146))) (let ((.def_148 (or .def_147 .def_143))) (let ((.def_149 (not .def_148))) (let ((.def_150 (not A12))) (let ((.def_151 (not A21))) (let ((.def_152 (or .def_151 .def_150))) (let ((.def_153 (not A24))) (let ((.def_154 (or .def_153 .def_36))) (let ((.def_155 (= .def_154 .def_152))) (let ((.def_156 (not .def_155))) (let ((.def_157 (not A9))) (let ((.def_158 (or A18 .def_157))) (let ((.def_159 (not .def_158))) (let ((.def_160 (or .def_35 A5))) (let ((.def_161 (not .def_160))) (let ((.def_162 (and .def_161 .def_159))) (let ((.def_163 (not .def_162))) (let ((.def_164 (or .def_163 .def_156))) (let ((.def_165 (not .def_164))) (let ((.def_166 (or .def_165 .def_149))) (let ((.def_167 (not .def_166))) (let ((.def_168 (and .def_167 .def_138))) (let ((.def_169 (not .def_168))) (let ((.def_170 (= .def_0 A20))) (let ((.def_171 (not .def_170))) (let ((.def_172 (or A17 .def_2))) (let ((.def_173 (and .def_172 .def_171))) (let ((.def_174 (not .def_173))) (let ((.def_175 (and .def_50 .def_50))) (let ((.def_176 (not .def_175))) (let ((.def_177 (and .def_27 .def_2))) (let ((.def_178 (not .def_177))) (let ((.def_179 (or .def_178 .def_176))) (let ((.def_180 (not .def_179))) (let ((.def_181 (or .def_180 .def_174))) (let ((.def_182 (not .def_181))) (let ((.def_183 (or .def_92 .def_3))) (let ((.def_184 (or A1 .def_45))) (let ((.def_185 (or .def_184 .def_183))) (let ((.def_186 (or .def_35 A23))) (let ((.def_187 (not .def_186))) (let ((.def_188 (or .def_157 A11))) (let ((.def_189 (and .def_188 .def_187))) (let ((.def_190 (not .def_189))) (let ((.def_191 (= .def_190 .def_185))) (let ((.def_192 (not .def_191))) (let ((.def_193 (= .def_192 .def_182))) (let ((.def_194 (= .def_27 .def_89))) (let ((.def_195 (and .def_59 A8))) (let ((.def_196 (not .def_195))) (let ((.def_197 (or .def_196 .def_194))) (let ((.def_198 (not .def_197))) (let ((.def_199 (and A22 .def_28))) (let ((.def_200 (not .def_199))) (let ((.def_201 (or A16 A11))) (let ((.def_202 (not .def_201))) (let ((.def_203 (and .def_202 .def_200))) (let ((.def_204 (and .def_203 .def_198))) (let ((.def_205 (not .def_204))) (let ((.def_206 (= .def_35 A11))) (let ((.def_207 (not .def_206))) (let ((.def_208 (or A5 .def_51))) (let ((.def_209 (not .def_208))) (let ((.def_210 (or .def_209 .def_207))) (let ((.def_211 (and A11 .def_151))) (let ((.def_212 (or .def_38 A6))) (let ((.def_213 (or .def_212 .def_211))) (let ((.def_214 (and .def_213 .def_210))) (let ((.def_215 (not .def_214))) (let ((.def_216 (or .def_215 .def_205))) (let ((.def_217 (not .def_216))) (let ((.def_218 (or .def_217 .def_193))) (let ((.def_219 (or .def_218 .def_169))) (let ((.def_220 (not .def_219))) (let ((.def_221 (or .def_220 .def_116))) .def_221)))))))))))))))))))))))))))))))))))))))))))))))))))))))))))))))))))))))))))))))))))))))))))))))))))))))))))))))))))))))))))))))))))))))))))))))))))))))))))))))))))))))))))))))))))))))))))))))))))))))))))))))))))))))))))))))
(check-sat)
